 vasp.6.3.0 20Jan22 (build Jun 09 2022 20:58:46) complex

 executed on             LinuxIFC date 2022.06.10  20:38:33

 INCAR:
   SYSTEM = skutterudites
   NWRITE = 2
   LPETIM = F  write-flag & timer
   ISTART = 1   job   :0-new  1-cont  2-samecut
   ICHARG = 1   charge: 1-file 2-atom 10-con
   ENCUT = 520
   NELM = 140
   NELMIN = 5
   EDIFF = 1E-04  stopping-criterion for ELM
   AMIX = 0.1
   BMIX = 1.2
   NSW = 0   number of steps for IOM
   EDIFFG = -1E-02  stopping-criterion for IOM
   NBLOCK = 1
   KBLOCK = 5  inner block
   IBRION = -1   ionic relax: 0-MD 1-quasi-New 2-CG
   ISIF = 0   stress and relaxation
   IWAVPR = 1   prediction: 0-non 1-charg 2-wave 3-comb
   LCORR = T   Harris-correction to forces
   POTIM = 0.05   time-step for ion-motion
   ISMEAR = -1
   SIGMA = 0.0258  broadening in eV -4-tet -1-fermi 0-gaus
   ALGO = fast   algorithm
   LDIAG = T   sub-space diagonalisation
   LREAL = F   real-space projection(O or Auto)
   WEIMIN = 0
   NPAR = 1
   PREC = Accurate
   ADDGRID = .TRUE.
   LWAVE = .FALSE.
   LCHARG = .FALSE.
   NBANDS = 18

 POTCAR:    PAW_PBE Fe 06Sep2000
 POTCAR:    PAW_PBE Nb_pv 08Apr2002
 POTCAR:    PAW_PBE Sb 06Sep2000
|           W    W    AA    RRRRR   N    N  II  N    N   GGGG   !!!           |
|           W    W   A  A   R    R  NN   N  II  NN   N  G    G  !!!           |
|           W    W  A    A  R    R  N N  N  II  N N  N  G       !!!           |
|           W WW W  AAAAAA  RRRRR   N  N N  II  N  N N  G  GGG   !            |
|           WW  WW  A    A  R   R   N   NN  II  N   NN  G    G                |
|           W    W  A    A  R    R  N    N  II  N    N   GGGG   !!!           |
|     For optimal performance we recommend to set                             |
|       NCORE = 2 up to number-of-cores-per-socket                            |
|     This setting can greatly improve the performance of VASP for DFT.       |
|     The default, NCORE=1 might be grossly inefficient on modern             |
|     multi-core architectures or massively parallel machines. Do your        |
|     Unfortunately you need to use the default for GW and RPA                |
|     calculations (for HF NCORE is supported but not extensively tested      |
|     yet).                                                                   |

 POTCAR:    PAW_PBE Fe 06Sep2000
   VRHFIN =Fe:  d7 s1

   TITEL  = PAW_PBE Fe 06Sep2000
   POMASS =   55.847; ZVAL   =    8.000    mass and valenz
   ENMAX  =  267.882; ENMIN  =  200.911 eV

 POTCAR:    PAW_PBE Nb_pv 08Apr2002
   VRHFIN =Nb: 4p5s4d

   TITEL  = PAW_PBE Nb_pv 08Apr2002
   POMASS =   92.000; ZVAL   =   11.000    mass and valenz
   ENMAX  =  208.608; ENMIN  =  156.456 eV

 POTCAR:    PAW_PBE Sb 06Sep2000
   VRHFIN =Sb: s2p3

   TITEL  = PAW_PBE Sb 06Sep2000
   POMASS =  121.750; ZVAL   =    5.000    mass and valenz
   ENMAX  =  172.069; ENMIN  =  129.052 eV

  PAW_PBE Fe 06Sep2000                  :
  PAW_PBE Nb_pv 08Apr2002               :
  PAW_PBE Sb 06Sep2000                  :

 POSCAR: Fe1 Nb1 Sb1
  positions in direct lattice
  velocities in cartesian coordinates
 exchange correlation table for  LEXCH =        8
   RHO(1)=    0.500       N(1)  =     2000
   RHO(2)=  100.500       N(2)  =     4000

 ion  position               nearest neighbor table
   1  0.750  0.750  0.750-   3 2.56   2 2.56   3 2.56   2 2.56   3 2.56   2 2.56   3 2.56   2 2.56

   2  0.000  0.000  0.000-   1 2.56   1 2.56   1 2.56   1 2.56   3 2.96   3 2.96   3 2.96   3 2.96
                             3 2.96   3 2.96
   3  0.500  0.500  0.500-   1 2.56   1 2.56   1 2.56   1 2.56   2 2.96   2 2.96   2 2.96   2 2.96
                             2 2.96   2 2.96

  LATTYP: Found a face centered cubic cell.
 ALAT       =     5.9129752745

  Lattice vectors:

 A1 = (   0.0000000000,   2.9564876373,   2.9564876373)
 A2 = (   2.9564876373,   0.0000000000,   2.9564876373)
 A3 = (   2.9564876373,   2.9564876373,   0.0000000000)

Analysis of symmetry for initial positions (statically):
 Subroutine PRICEL returns:
 Original cell was already a primitive cell.

 Routine SETGRP: Setting up the symmetry group for a
 face centered cubic supercell.

 Subroutine GETGRP returns: Found 24 space group operations
 (whereof 24 operations were pure point group operations)
 out of a pool of 48 trial point group operations.

The static configuration has the point symmetry T_d .

Analysis of symmetry for dynamics (positions and initial velocities):
 Subroutine PRICEL returns:
 Original cell was already a primitive cell.

 Routine SETGRP: Setting up the symmetry group for a
 face centered cubic supercell.

 Subroutine GETGRP returns: Found 24 space group operations
 (whereof 24 operations were pure point group operations)
 out of a pool of 48 trial point group operations.

The dynamic configuration has the point symmetry T_d .

 Subroutine INISYM returns: Found 24 space group operations
 (whereof 24 operations are pure point group operations),
 and found     1 'primitive' translations

                                     Primitive cell

  volume of cell :      51.6842

  direct lattice vectors                    reciprocal lattice vectors
     0.000000000  2.956487637  2.956487637    -0.169119598  0.169119598  0.169119598
     2.956487637  0.000000000  2.956487637     0.169119598 -0.169119598  0.169119598
     2.956487637  2.956487637  0.000000000     0.169119598  0.169119598 -0.169119598

  length of vectors
     4.181104914  4.181104914  4.181104914     0.292923736  0.292923736  0.292923736

  position of ions in fractional coordinates (direct lattice)
     0.750000000  0.750000000  0.750000000
     0.000000000  0.000000000  0.000000000
     0.500000000  0.500000000  0.500000000

  ion indices of the primitive-cell ions
   primitive index   ion index
                 1           1
                 2           2
                 3           3

 KPOINTS: KPOINTS

Automatic generation of k-mesh.
 Grid dimensions read from file:
 generate k-points for:   44   44   44

 Generating k-lattice:

  Cartesian coordinates                     Fractional coordinates (reciprocal lattice)
    -0.003843627  0.003843627  0.003843627     0.022727273  0.000000000 -0.000000000
     0.003843627 -0.003843627  0.003843627     0.000000000  0.022727273  0.000000000
     0.003843627  0.003843627 -0.003843627    -0.000000000 -0.000000000  0.022727273

  Length of vectors
     0.006657358  0.006657358  0.006657358

  Shift w.r.t. Gamma in fractional coordinates (k-lattice)
     0.000000000  0.000000000  0.000000000

 Subroutine IBZKPT returns following result:

 Found   2168 irreducible k-points:

 Following reciprocal coordinates:
            Coordinates               Weight
  0.000000  0.000000  0.000000      1.000000
  0.022727 -0.000000  0.000000      8.000000
  0.045455  0.000000  0.000000      8.000000
  0.068182 -0.000000  0.000000      8.000000
  0.090909  0.000000  0.000000      8.000000
  0.113636 -0.000000  0.000000      8.000000
  0.136364  0.000000  0.000000      8.000000
  0.159091 -0.000000  0.000000      8.000000
  0.181818  0.000000  0.000000      8.000000
  0.204545 -0.000000 -0.000000      8.000000
  0.227273  0.000000  0.000000      8.000000
  0.250000  0.000000 -0.000000      8.000000
  0.272727 -0.000000  0.000000      8.000000
  0.295455  0.000000 -0.000000      8.000000
  0.318182 -0.000000  0.000000      8.000000
  0.340909  0.000000  0.000000      8.000000
  0.363636 -0.000000  0.000000      8.000000
  0.386364  0.000000  0.000000      8.000000
  0.409091 -0.000000 -0.000000      8.000000
  0.431818  0.000000 -0.000000      8.000000
  0.454545 -0.000000  0.000000      8.000000
  0.477273  0.000000  0.000000      8.000000
  0.500000  0.000000 -0.000000      4.000000
  0.022727  0.022727  0.000000      6.000000
  0.045455  0.022727  0.000000     24.000000
  0.068182  0.022727  0.000000     24.000000
  0.090909  0.022727  0.000000     24.000000
  0.113636  0.022727  0.000000     24.000000
  0.136364  0.022727  0.000000     24.000000
  0.159091  0.022727  0.000000     24.000000
  0.181818  0.022727  0.000000     24.000000
  0.204545  0.022727  0.000000     24.000000
  0.227273  0.022727  0.000000     24.000000
  0.250000  0.022727  0.000000     24.000000
  0.272727  0.022727 -0.000000     24.000000
  0.295455  0.022727  0.000000     24.000000
  0.318182  0.022727 -0.000000     24.000000
  0.340909  0.022727  0.000000     24.000000
  0.363636  0.022727 -0.000000     24.000000
  0.386364  0.022727  0.000000     24.000000
  0.409091  0.022727  0.000000     24.000000
  0.431818  0.022727  0.000000     24.000000
  0.454545  0.022727 -0.000000     24.000000
  0.477273  0.022727  0.000000     24.000000
  0.500000  0.022727  0.000000     24.000000
 -0.477273  0.022727  0.000000     24.000000
 -0.454545  0.022727 -0.000000     24.000000
 -0.431818  0.022727 -0.000000     24.000000
 -0.409091  0.022727 -0.000000     24.000000
 -0.386364  0.022727 -0.000000     24.000000
 -0.363636  0.022727 -0.000000     24.000000
 -0.340909  0.022727 -0.000000     24.000000
 -0.318182  0.022727  0.000000     24.000000
 -0.295455  0.022727 -0.000000     24.000000
 -0.272727  0.022727 -0.000000     24.000000
 -0.250000  0.022727  0.000000     24.000000
 -0.227273  0.022727  0.000000     24.000000
 -0.204545  0.022727 -0.000000     24.000000
 -0.181818  0.022727 -0.000000     24.000000
 -0.159091  0.022727 -0.000000     24.000000
[...]
 -0.295455  0.454545  0.204545     48.000000
 -0.272727  0.454545  0.204545     48.000000
 -0.250000  0.454545  0.204545     24.000000
 -0.318182  0.477273  0.204545     24.000000
 -0.295455  0.477273  0.204545     48.000000
 -0.272727  0.477273  0.204545     24.000000
 -0.295455  0.500000  0.204545     12.000000
 -0.318182  0.454545  0.227273     24.000000
 -0.295455  0.454545  0.227273     48.000000
 -0.272727  0.454545  0.227273     24.000000
 -0.295455  0.477273  0.227273     24.000000
 -0.272727  0.477273  0.227273     48.000000
 -0.250000  0.477273  0.227273     24.000000
 -0.272727  0.500000  0.227273     12.000000
 -0.250000  0.500000  0.250000      6.000000

 Following cartesian coordinates:
            Coordinates               Weight
  0.000000  0.000000  0.000000      1.000000
 -0.003844  0.003844  0.003844      8.000000
 -0.007687  0.007687  0.007687      8.000000
 -0.011531  0.011531  0.011531      8.000000
 -0.015375  0.015375  0.015375      8.000000
 -0.019218  0.019218  0.019218      8.000000
 -0.023062  0.023062  0.023062      8.000000
 -0.026905  0.026905  0.026905      8.000000
 -0.030749  0.030749  0.030749      8.000000
 -0.034593  0.034593  0.034593      8.000000
 -0.038436  0.038436  0.038436      8.000000
 -0.042280  0.042280  0.042280      8.000000
 -0.046124  0.046124  0.046124      8.000000
 -0.049967  0.049967  0.049967      8.000000
 -0.053811  0.053811  0.053811      8.000000
 -0.057654  0.057654  0.057654      8.000000
 -0.061498  0.061498  0.061498      8.000000
 -0.065342  0.065342  0.065342      8.000000
 -0.069185  0.069185  0.069185      8.000000
 -0.073029  0.073029  0.073029      8.000000
 -0.076873  0.076873  0.076873      8.000000
 -0.080716  0.080716  0.080716      8.000000
 -0.084560  0.084560  0.084560      4.000000
[...]
   0.15909091 -0.00000000  0.00000000       0.000
   0.18181818  0.00000000  0.00000000       0.000
   0.20454545 -0.00000000 -0.00000000       0.000
   0.22727273  0.00000000  0.00000000       0.000
   0.25000000  0.00000000 -0.00000000       0.000
   0.27272727 -0.00000000  0.00000000       0.000
   0.29545455  0.00000000 -0.00000000       0.000
   0.31818182 -0.00000000  0.00000000       0.000
   0.34090909  0.00000000  0.00000000       0.000
   0.36363636 -0.00000000  0.00000000       0.000
   0.38636364  0.00000000  0.00000000       0.000
   0.40909091 -0.00000000 -0.00000000       0.000
   0.43181818  0.00000000 -0.00000000       0.000
   0.45454545 -0.00000000  0.00000000       0.000
   0.47727273  0.00000000  0.00000000       0.000
   0.50000000  0.00000000 -0.00000000       0.000
   0.02272727  0.02272727  0.00000000       0.000
   0.04545455  0.02272727  0.00000000       0.000
   0.06818182  0.02272727  0.00000000       0.000
   0.09090909  0.02272727  0.00000000       0.000
   0.11363636  0.02272727  0.00000000       0.000
   0.13636364  0.02272727  0.00000000       0.000
   0.15909091  0.02272727  0.00000000       0.000
   0.18181818  0.02272727  0.00000000       0.000
   0.20454545  0.02272727  0.00000000       0.000
   0.22727273  0.02272727  0.00000000       0.000
   0.25000000  0.02272727  0.00000000       0.000
   0.27272727  0.02272727 -0.00000000       0.000
   0.29545455  0.02272727  0.00000000       0.000
   0.31818182  0.02272727 -0.00000000       0.000
   0.34090909  0.02272727  0.00000000       0.000
   0.36363636  0.02272727 -0.00000000       0.000
   0.38636364  0.02272727  0.00000000       0.000
   0.40909091  0.02272727  0.00000000       0.000
   0.43181818  0.02272727  0.00000000       0.000
   0.45454545  0.02272727 -0.00000000       0.000
   0.47727273  0.02272727  0.00000000       0.000
   0.50000000  0.02272727  0.00000000       0.000
  -0.47727273  0.02272727  0.00000000       0.000
  -0.45454545  0.02272727 -0.00000000       0.000
  -0.43181818  0.02272727 -0.00000000       0.000
  -0.40909091  0.02272727 -0.00000000       0.000
  -0.38636364  0.02272727 -0.00000000       0.000
  -0.36363636  0.02272727 -0.00000000       0.000
  -0.34090909  0.02272727 -0.00000000       0.000
  -0.31818182  0.02272727  0.00000000       0.000
  -0.29545455  0.02272727 -0.00000000       0.000
  -0.27272727  0.02272727 -0.00000000       0.000
  -0.25000000  0.02272727  0.00000000       0.000
  -0.22727273  0.02272727  0.00000000       0.000
  -0.20454545  0.02272727 -0.00000000       0.000
  -0.18181818  0.02272727 -0.00000000       0.000
  -0.15909091  0.02272727 -0.00000000       0.000
[...]
  -0.29545455  0.45454545  0.20454545       0.001
  -0.27272727  0.45454545  0.20454545       0.001
  -0.25000000  0.45454545  0.20454545       0.000
  -0.31818182  0.47727273  0.20454545       0.000
  -0.29545455  0.47727273  0.20454545       0.001
  -0.27272727  0.47727273  0.20454545       0.000
  -0.29545455  0.50000000  0.20454545       0.000
  -0.31818182  0.45454545  0.22727273       0.000
  -0.29545455  0.45454545  0.22727273       0.001
  -0.27272727  0.45454545  0.22727273       0.000
  -0.29545455  0.47727273  0.22727273       0.000
  -0.27272727  0.47727273  0.22727273       0.001
  -0.25000000  0.47727273  0.22727273       0.000
  -0.27272727  0.50000000  0.22727273       0.000
  -0.25000000  0.50000000  0.25000000       0.000

 position of ions in fractional coordinates (direct lattice)
   0.75000000  0.75000000  0.75000000
   0.00000000  0.00000000  0.00000000
   0.50000000  0.50000000  0.50000000

 position of ions in cartesian coordinates  (Angst):
   4.43473146  4.43473146  4.43473146
   0.00000000  0.00000000  0.00000000
   2.95648764  2.95648764  2.95648764

 k-point   1 :   0.0000 0.0000 0.0000  plane waves:    1411
 k-point   2 :   0.0227-0.0000 0.0000  plane waves:    1411
 k-point   3 :   0.0455 0.0000 0.0000  plane waves:    1399
 k-point   4 :   0.0682-0.0000 0.0000  plane waves:    1396
 k-point   5 :   0.0909 0.0000 0.0000  plane waves:    1399
 k-point   6 :   0.1136-0.0000 0.0000  plane waves:    1399
 k-point   7 :   0.1364 0.0000 0.0000  plane waves:    1399
 k-point   8 :   0.1591-0.0000 0.0000  plane waves:    1399
 k-point   9 :   0.1818 0.0000 0.0000  plane waves:    1387
 k-point  10 :   0.2045-0.0000-0.0000  plane waves:    1387
 k-point  11 :   0.2273 0.0000 0.0000  plane waves:    1387
 k-point  12 :   0.2500 0.0000-0.0000  plane waves:    1390
 k-point  13 :   0.2727-0.0000 0.0000  plane waves:    1387
 k-point  14 :   0.2955 0.0000-0.0000  plane waves:    1387
 k-point  15 :   0.3182-0.0000 0.0000  plane waves:    1399
 k-point  16 :   0.3409 0.0000 0.0000  plane waves:    1399
 k-point  17 :   0.3636-0.0000 0.0000  plane waves:    1410
 k-point  18 :   0.3864 0.0000 0.0000  plane waves:    1398
 k-point  19 :   0.4091-0.0000-0.0000  plane waves:    1398
 k-point  20 :   0.4318 0.0000-0.0000  plane waves:    1401
 k-point  21 :   0.4545-0.0000 0.0000  plane waves:    1392
 k-point  22 :   0.4773 0.0000 0.0000  plane waves:    1392
 k-point  23 :   0.5000 0.0000-0.0000  plane waves:    1404
 k-point  24 :   0.0227 0.0227 0.0000  plane waves:    1403
 k-point  25 :   0.0455 0.0227 0.0000  plane waves:    1397
 k-point  26 :   0.0682 0.0227 0.0000  plane waves:    1397
 k-point  27 :   0.0909 0.0227 0.0000  plane waves:    1400
 k-point  28 :   0.1136 0.0227 0.0000  plane waves:    1402
 k-point  29 :   0.1364 0.0227 0.0000  plane waves:    1406
 k-point  30 :   0.1591 0.0227 0.0000  plane waves:    1400
 k-point  31 :   0.1818 0.0227 0.0000  plane waves:    1393
 k-point  32 :   0.2045 0.0227 0.0000  plane waves:    1391
 k-point  33 :   0.2273 0.0227 0.0000  plane waves:    1389
 k-point  34 :   0.2500 0.0227 0.0000  plane waves:    1387
 k-point  35 :   0.2727 0.0227-0.0000  plane waves:    1386
 k-point  36 :   0.2955 0.0227 0.0000  plane waves:    1385
 k-point  37 :   0.3182 0.0227-0.0000  plane waves:    1390
 k-point  38 :   0.3409 0.0227 0.0000  plane waves:    1397
 k-point  39 :   0.3636 0.0227-0.0000  plane waves:    1398
 k-point  40 :   0.3864 0.0227 0.0000  plane waves:    1402
 k-point  41 :   0.4091 0.0227 0.0000  plane waves:    1400
 k-point  42 :   0.4318 0.0227 0.0000  plane waves:    1399
 k-point  43 :   0.4545 0.0227-0.0000  plane waves:    1394
 k-point  44 :   0.4773 0.0227 0.0000  plane waves:    1392
 k-point  45 :   0.5000 0.0227 0.0000  plane waves:    1394
 k-point  46 :  -0.4773 0.0227 0.0000  plane waves:    1394
 k-point  47 :  -0.4545 0.0227-0.0000  plane waves:    1392
 k-point  48 :  -0.4318 0.0227-0.0000  plane waves:    1397
 k-point  49 :  -0.4091 0.0227-0.0000  plane waves:    1401
 k-point  50 :  -0.3864 0.0227-0.0000  plane waves:    1403
 k-point  51 :  -0.3636 0.0227-0.0000  plane waves:    1402
 k-point  52 :  -0.3409 0.0227-0.0000  plane waves:    1398
 k-point  53 :  -0.3182 0.0227 0.0000  plane waves:    1396
 k-point  54 :  -0.2955 0.0227-0.0000  plane waves:    1389
 k-point  55 :  -0.2727 0.0227-0.0000  plane waves:    1385
 k-point  56 :  -0.2500 0.0227 0.0000  plane waves:    1384
 k-point  57 :  -0.2273 0.0227 0.0000  plane waves:    1386
 k-point  58 :  -0.2045 0.0227-0.0000  plane waves:    1388
 k-point  59 :  -0.1818 0.0227-0.0000  plane waves:    1391
 k-point  60 :  -0.1591 0.0227-0.0000  plane waves:    1399
[...]
 k-point *** :  -0.2955 0.4545 0.2045  plane waves:    1398
 k-point *** :  -0.2727 0.4545 0.2045  plane waves:    1401
 k-point *** :  -0.2500 0.4545 0.2045  plane waves:    1396
 k-point *** :  -0.3182 0.4773 0.2045  plane waves:    1397
 k-point *** :  -0.2955 0.4773 0.2045  plane waves:    1400
 k-point *** :  -0.2727 0.4773 0.2045  plane waves:    1399
 k-point *** :  -0.2955 0.5000 0.2045  plane waves:    1396
 k-point *** :  -0.3182 0.4545 0.2273  plane waves:    1392
 k-point *** :  -0.2955 0.4545 0.2273  plane waves:    1400
 k-point *** :  -0.2727 0.4545 0.2273  plane waves:    1402
 k-point *** :  -0.2955 0.4773 0.2273  plane waves:    1396
 k-point *** :  -0.2727 0.4773 0.2273  plane waves:    1396
 k-point *** :  -0.2500 0.4773 0.2273  plane waves:    1394
 k-point *** :  -0.2727 0.5000 0.2273  plane waves:    1398
 k-point *** :  -0.2500 0.5000 0.2500  plane waves:    1384

 maximum and minimum number of plane-waves per node :        65       51

 maximum number of plane-waves:      1411
 maximum index in each direction:
   IXMAX=    8   IYMAX=    7   IZMAX=    7
   IXMIN=   -8   IYMIN=   -8   IZMIN=   -7

 parallel 3D FFT for wavefunctions:
    minimum data exchange during FFTs selected (reduces bandwidth)
 parallel 3D FFT for charge:
    minimum data exchange during FFTs selected (reduces bandwidth)

 Broyden mixing: mesh for mixing (old mesh)
   NGX = 15   NGY = 15   NGZ = 15
  (NGX  = 64   NGY  = 64   NGZ  = 64)
  gives a total of   3375 points

 initial charge density was supplied:
 charge density of overlapping atoms calculated
 number of electron      24.0000000 magnetization
 keeping initial charge density in first step

 Maximum index for augmentation-charges        15974 (set IRDMAX)

 First call to EWALD:  gamma=   0.476
 Maximum number of real-space cells 3x 3x 3
 Maximum number of reciprocal cells 3x 3x 3

--------------------------------------- Iteration      1(   1)  ---------------------------------------

 eigenvalue-minimisations  : 79240
 total energy-change (2. order) : 0.1836319E+03  (-0.1120260E+04)
 number of electron      24.0000000 magnetization
 augmentation part       24.0000000 magnetization

 Free energy of the ion-electron system (eV)
  alpha Z        PSCENC =       130.13584951
  Ewald energy   TEWEN  =     -1568.30883671
  -Hartree energ DENC   =      -379.01329918
  -exchange      EXHF   =         0.00000000
  -V(xc)+E(xc)   XCENC  =       -15.02476705
  PAW double counting   =      1554.21320800    -1492.00501930
  entropy T*S    EENTRO =        -0.00288230
  eigenvalues    EBANDS =       165.98335403
  atomic energy  EATOM  =      1787.65433595
  Solvation  Ediel_sol  =         0.00000000
  free energy    TOTEN  =       183.63194295 eV

  energy without entropy =      183.63482524  energy(sigma->0) =      183.63338409

[...]

 eigenvalue-minimisations  : 87042
 total energy-change (2. order) :-0.1980122E+03  (-0.1928181E+03)
 number of electron      24.0000000 magnetization
 augmentation part       24.0000000 magnetization

[...]

 eigenvalue-minimisations  :107750
 total energy-change (2. order) :-0.1005209E+02  (-0.9681121E+01)
 number of electron      24.0000000 magnetization
 augmentation part       24.0000000 magnetization

[...]

 Broyden mixing:
  rms(total) = 0.19531E+01    rms(broyden)= 0.19531E+01
  rms(prec ) = 0.26876E+01
  weight for this iteration     100.00

[...]

 eigenvalues of (default mixing * dielectric matrix)
  average eigenvalue GAMMA=   3.5050
  3.5050

[...]

 eigenvalue-minimisations  :118944
 total energy-change (2. order) : 0.5534144E+00  (-0.1196551E+00)
 number of electron      24.0000000 magnetization
 augmentation part        7.2980931 magnetization

[...]

 eigenvalue-minimisations  : 94124
 total energy-change (2. order) :-0.2092596E-01  (-0.6009283E-02)
 number of electron      24.0000000 magnetization
 augmentation part        7.4350253 magnetization

[...]

 eigenvalue-minimisations  :100451
 total energy-change (2. order) : 0.2932252E-02  (-0.9051238E-03)
 number of electron      24.0000000 magnetization
 augmentation part        7.5206672 magnetization

[...]

 eigenvalue-minimisations  :104139
 total energy-change (2. order) :-0.2773898E-03  (-0.2390968E-03)
 number of electron      24.0000000 magnetization
 augmentation part        7.5206818 magnetization

 Broyden mixing:
  rms(total) = 0.28969E-01    rms(broyden)= 0.28969E-01
  rms(prec ) = 0.76778E-01
  weight for this iteration     100.00

 eigenvalues of (default mixing * dielectric matrix)
  average eigenvalue GAMMA=   3.0073
  9.3537  5.3976  3.8273  3.8273  1.2246  1.0079  1.0079  0.7900  0.6296

[...]

--------------------------------------- Iteration      1(  15)  ---------------------------------------

 eigenvalue-minimisations  : 72308
 total energy-change (2. order) : 0.6574817E-04  (-0.3232526E-04)
 number of electron      24.0000000 magnetization
 augmentation part        7.5206818 magnetization

 Free energy of the ion-electron system (eV)
  alpha Z        PSCENC =       130.13584951
  Ewald energy   TEWEN  =     -1568.30883671
  -Hartree energ DENC   =      -356.29916802
  -exchange      EXHF   =         0.00000000
  -V(xc)+E(xc)   XCENC  =       -15.85040194
  PAW double counting   =      2642.98101034    -2584.44952893
  entropy T*S    EENTRO =        -0.00000005
  eigenvalues    EBANDS =       -59.34786743
  atomic energy  EATOM  =      1787.65433595
  Solvation  Ediel_sol  =         0.00000000
  free energy    TOTEN  =       -23.48460728 eV

  energy without entropy =      -23.48460722  energy(sigma->0) =      -23.48460725

 average (electrostatic) potential at core
  the test charge radii are     1.0103  1.2125  1.1712
  (the norm of the test charge is              1.0000)
       1 -41.1082       2 -33.0624       3 -84.8018

 E-fermi :   7.8455     XC(G=0): -11.8423     alpha+bet :-14.4519

 Fermi energy:         7.8454522447

 k-point     1 :       0.0000    0.0000    0.0000
  band No.  band energies     occupation
      1     -23.3349      2.00000
      2     -23.3349      2.00000
      3     -23.3349      2.00000
      4      -3.9240      2.00000
      5       5.0571      2.00000
      6       5.0571      2.00000
      7       5.0571      2.00000
      8       5.4732      2.00000
      9       5.4732      2.00000
     10       6.6349      2.00000
     11       6.6349      2.00000
     12       6.6349      2.00000
     13       9.5036      0.00000
     14       9.5036      0.00000
     15      10.4992      0.00000
     16      10.4992      0.00000
     17      10.4992      0.00000
     18      11.6274      0.00000

[...]

 k-point  2168 :      -0.2500    0.5000    0.2500
  band No.  band energies     occupation
      1     -23.3627      2.00000
      2     -23.3585      2.00000
      3     -23.3455      2.00000
      4      -2.1108      2.00000
      5       3.1478      2.00000
      6       3.2136      2.00000
      7       3.8375      2.00000
      8       6.0182      2.00000
      9       6.2786      2.00000
     10       6.4287      2.00000
     11       6.5470      2.00000
     12       7.1620      2.00000
     13       9.1291      0.00000
     14       9.1848      0.00000
     15       9.2171      0.00000
     16       9.5288      0.00000
     17       9.9983      0.00000
     18      14.6781      0.00000

 soft charge-density along one line, spin component           1
         0         1         2         3         4         5         6         7         8         9
 total charge-density along one line

------------------------ aborting loop because EDIFF is reached ----------------------------------------

 VOLUME and BASIS-vectors are now :
  energy-cutoff  :      520.00
  volume of cell :       51.68
      direct lattice vectors                 reciprocal lattice vectors
     0.000000000  2.956487637  2.956487637    -0.169119598  0.169119598  0.169119598
     2.956487637  0.000000000  2.956487637     0.169119598 -0.169119598  0.169119598
     2.956487637  2.956487637  0.000000000     0.169119598  0.169119598 -0.169119598

  length of vectors
     4.181104914  4.181104914  4.181104914     0.292923736  0.292923736  0.292923736

 FORCES acting on ions
    electron-ion (+dipol)            ewald-force                    non-local-force                 convergence-correction
   0.133E-06 0.133E-06 0.130E-06   -.456E-14 -.254E-14 -.862E-14   -.599E-17 -.252E-17 -.446E-17   -.526E-06 -.526E-06 -.526E-06
   -.251E-07 -.251E-07 -.284E-07   0.744E-14 -.109E-14 0.211E-13   -.179E-16 -.406E-17 -.159E-16   0.209E-06 0.209E-06 0.209E-06
   -.108E-06 -.108E-06 -.959E-07   -.278E-14 0.231E-14 -.130E-13   -.283E-17 0.249E-16 0.355E-16   -.119E-06 -.119E-06 -.119E-06
   -.285E-09 -.286E-09 0.581E-08   0.104E-15 -.133E-14 -.532E-15   -.268E-16 0.183E-16 0.151E-16   -.436E-06 -.436E-06 -.436E-06

 POSITION                                       TOTAL-FORCE (eV/Angst)
      4.43473      4.43473      4.43473         0.000000      0.000000      0.000000
      0.00000      0.00000      0.00000        -0.000000     -0.000000     -0.000000
      2.95649      2.95649      2.95649         0.000000     -0.000000     -0.000000
    total drift:                               -0.000000     -0.000000     -0.000000

  FREE ENERGIE OF THE ION-ELECTRON SYSTEM (eV)
  free  energy   TOTEN  =       -23.48460728 eV

  energy  without entropy=      -23.48460722  energy(sigma->0) =      -23.48460725